results/x-long/X-n157-k13.vrp_seed-44.out
16876	1820
