results/x-long/X-n157-k13.vrp_seed-44.vrp.sol
Route #1: 71 149 8 150 156 24 43 141 64 63 13 148
Route #2: 88 57 2 119 81 89 112 136 76 153 5 47
Route #3: 17 67 4 35 6 115 55 95 105 152 56 61
Route #4: 49 14 120 26 128 142 62 97 87 65 103 16
Route #5: 151 113 82 11 77 45 83 90 51 100 91 129
Route #6: 126 1 117 9 108 40 80 146 78 125 139 70
Route #7: 18 107 52 134 10 39 58 29 114 109 60 12
Route #8: 59 96 102 132 111 86 94 66 28 7 137 92
Route #9: 131 133 50 154 98 123 53 144 85 140 31 23
Route #10: 72 48 33 84 79 74 30 22 155 25 138 34
Route #11: 101 27 44 124 130 104 127 145 46 19 116 37
Route #12: 38 122 69 99 93 36 68 20 75 118 147 15
Route #13: 41 110 54 121 21 135 73 106 3 42 32 143
Cost 16876.000000